
(set-logic ALL) 

(declare-datatype MyList ((Nil) (Cons (head Real) (tail MyList)) )) 
(declare-fun l0 () MyList) 
(declare-fun l1 () MyList) 
(declare-fun l2 () MyList) 
(declare-fun l3 () MyList) 
(declare-fun i0 () Real) 
(declare-fun i1 () Real) 
(assert (and (= l3 l0) (= l2 l2)) )
(assert (not (= l0 l2)) )
(assert (or (= l0 Nil) (= l3 Nil) (= l1 Nil)) )
(assert (= l1 Nil) )
(assert (not (= l2 Nil)) )
(assert (or (is-Nil Nil) (is-Cons l1) (= l3 Nil)) )
(assert (and (= l1 Nil) (= l2 l1)) )
(assert (is-Nil l1) )
(check-sat)
